var 1..9: X____1;
var 1..9: X____10;
var 1..9: X____11;
var 1..9: X____12;
var 1..9: X____13;
var 1..9: X____14;
var 1..9: X____15;
var 1..9: X____16;
var 1..9: X____17;
var 1..9: X____18;
var 1..9: X____19;
var 1..9: X____2;
var 1..9: X____20;
var 1..9: X____21;
var 1..9: X____22;
var 1..9: X____23;
var 1..9: X____24;
var 1..9: X____25;
var 1..9: X____26;
var 1..9: X____27;
var 1..9: X____28;
var 1..9: X____29;
var 1..9: X____3;
var 1..9: X____30;
var 1..9: X____31;
var 1..9: X____32;
var 1..9: X____33;
var 1..9: X____34;
var 1..9: X____35;
var 1..9: X____36;
var 1..9: X____37;
var 1..9: X____38;
var 1..9: X____39;
var 1..9: X____4;
var 1..9: X____40;
var 1..9: X____41;
var 1..9: X____42;
var 1..9: X____43;
var 1..9: X____44;
var 1..9: X____45;
var 1..9: X____46;
var 1..9: X____47;
var 1..9: X____48;
var 1..9: X____49;
var 1..9: X____5;
var 1..9: X____50;
var 1..9: X____51;
var 1..9: X____52;
var 1..9: X____53;
var 1..9: X____54;
var 1..9: X____55;
var 1..9: X____6;
var 1..9: X____7;
var 1..9: X____8;
var 1..9: X____9;
array [1..81] of var 1..9: puzzle :: output_array([1..9, 1..9]) = [X____1, X____2, X____3, X____4, X____5, 2, X____6, X____7, X____8, X____9, X____10, X____11, X____12, 6, X____13, 4, X____14, 2, X____15, 1, 2, X____16, X____17, 8, 9, X____18, 7, X____19, X____20, X____21, 1, 4, X____22, X____23, 5, X____24, 9, X____25, X____26, X____27, X____28, X____29, X____30, X____31, 6, X____32, 7, X____33, X____34, 9, 5, X____35, X____36, X____37, 3, X____38, 8, 5, X____39, X____40, 7, 2, X____41, 6, X____42, 4, X____43, 3, X____44, X____45, X____46, X____47, X____48, X____49, X____50, 8, X____51, X____52, X____53, X____54, X____55];
constraint int_ne(1, X____1);
constraint int_ne(1, X____10);
constraint int_ne(1, X____11);
constraint int_ne(1, X____12);
constraint int_ne(1, X____15);
constraint int_ne(1, X____16);
constraint int_ne(1, X____19);
constraint int_ne(1, X____2);
constraint int_ne(1, X____20);
constraint int_ne(1, X____21);
constraint int_ne(1, X____28);
constraint int_ne(1, X____29);
constraint int_ne(1, X____3);
constraint int_ne(1, X____4);
constraint int_ne(1, X____9);
constraint int_ne(2, X____1);
constraint int_ne(2, X____10);
constraint int_ne(2, X____11);
constraint int_ne(2, X____12);
constraint int_ne(2, X____13);
constraint int_ne(2, X____14);
constraint int_ne(2, X____15);
constraint int_ne(2, X____16);
constraint int_ne(2, X____17);
constraint int_ne(2, X____18);
constraint int_ne(2, X____2);
constraint int_ne(2, X____3);
constraint int_ne(2, X____31);
constraint int_ne(2, X____36);
constraint int_ne(2, X____38);
constraint int_ne(2, X____39);
constraint int_ne(2, X____4);
constraint int_ne(2, X____40);
constraint int_ne(2, X____45);
constraint int_ne(2, X____47);
constraint int_ne(2, X____5);
constraint int_ne(2, X____53);
constraint int_ne(2, X____55);
constraint int_ne(2, X____6);
constraint int_ne(2, X____7);
constraint int_ne(2, X____8);
constraint int_ne(2, X____9);
constraint int_ne(3, X____1);
constraint int_ne(3, X____15);
constraint int_ne(3, X____17);
constraint int_ne(3, X____19);
constraint int_ne(3, X____28);
constraint int_ne(3, X____32);
constraint int_ne(3, X____39);
constraint int_ne(3, X____40);
constraint int_ne(3, X____42);
constraint int_ne(3, X____43);
constraint int_ne(3, X____49);
constraint int_ne(3, X____5);
constraint int_ne(3, X____50);
constraint int_ne(3, X____52);
constraint int_ne(3, X____9);
constraint int_ne(4, X____10);
constraint int_ne(4, X____11);
constraint int_ne(4, X____12);
constraint int_ne(4, X____13);
constraint int_ne(4, X____17);
constraint int_ne(4, X____18);
constraint int_ne(4, X____19);
constraint int_ne(4, X____20);
constraint int_ne(4, X____21);
constraint int_ne(4, X____26);
constraint int_ne(4, X____27);
constraint int_ne(4, X____29);
constraint int_ne(4, X____3);
constraint int_ne(4, X____33);
constraint int_ne(4, X____34);
constraint int_ne(4, X____38);
constraint int_ne(4, X____42);
constraint int_ne(4, X____48);
constraint int_ne(4, X____49);
constraint int_ne(4, X____5);
constraint int_ne(4, X____6);
constraint int_ne(4, X____7);
constraint int_ne(4, X____8);
constraint int_ne(4, X____9);
constraint int_ne(5, X____12);
constraint int_ne(5, X____13);
constraint int_ne(5, X____14);
constraint int_ne(5, X____16);
constraint int_ne(5, X____18);
constraint int_ne(5, X____19);
constraint int_ne(5, X____20);
constraint int_ne(5, X____21);
constraint int_ne(5, X____22);
constraint int_ne(5, X____23);
constraint int_ne(5, X____27);
constraint int_ne(5, X____28);
constraint int_ne(5, X____29);
constraint int_ne(5, X____30);
constraint int_ne(5, X____32);
constraint int_ne(5, X____33);
constraint int_ne(5, X____34);
constraint int_ne(5, X____35);
constraint int_ne(5, X____37);
constraint int_ne(5, X____38);
constraint int_ne(5, X____4);
constraint int_ne(5, X____44);
constraint int_ne(5, X____51);
constraint int_ne(5, X____52);
constraint int_ne(5, X____7);
constraint int_ne(6, X____1);
constraint int_ne(6, X____10);
constraint int_ne(6, X____11);
constraint int_ne(6, X____12);
constraint int_ne(6, X____15);
constraint int_ne(6, X____16);
constraint int_ne(6, X____19);
constraint int_ne(6, X____23);
constraint int_ne(6, X____24);
constraint int_ne(6, X____25);
constraint int_ne(6, X____26);
constraint int_ne(6, X____27);
constraint int_ne(6, X____28);
constraint int_ne(6, X____29);
constraint int_ne(6, X____30);
constraint int_ne(6, X____31);
constraint int_ne(6, X____32);
constraint int_ne(6, X____35);
constraint int_ne(6, X____36);
constraint int_ne(6, X____38);
constraint int_ne(6, X____4);
constraint int_ne(6, X____49);
constraint int_ne(6, X____5);
constraint int_ne(6, X____50);
constraint int_ne(6, X____8);
constraint int_ne(6, X____9);
constraint int_ne(7, X____10);
constraint int_ne(7, X____14);
constraint int_ne(7, X____15);
constraint int_ne(7, X____16);
constraint int_ne(7, X____17);
constraint int_ne(7, X____18);
constraint int_ne(7, X____19);
constraint int_ne(7, X____2);
constraint int_ne(7, X____20);
constraint int_ne(7, X____21);
constraint int_ne(7, X____23);
constraint int_ne(7, X____25);
constraint int_ne(7, X____26);
constraint int_ne(7, X____30);
constraint int_ne(7, X____32);
constraint int_ne(7, X____35);
constraint int_ne(7, X____38);
constraint int_ne(7, X____39);
constraint int_ne(7, X____40);
constraint int_ne(7, X____46);
constraint int_ne(7, X____47);
constraint int_ne(7, X____54);
constraint int_ne(7, X____55);
constraint int_ne(7, X____6);
constraint int_ne(7, X____7);
constraint int_ne(7, X____8);
constraint int_ne(8, X____11);
constraint int_ne(8, X____12);
constraint int_ne(8, X____13);
constraint int_ne(8, X____15);
constraint int_ne(8, X____16);
constraint int_ne(8, X____17);
constraint int_ne(8, X____21);
constraint int_ne(8, X____26);
constraint int_ne(8, X____27);
constraint int_ne(8, X____3);
constraint int_ne(8, X____33);
constraint int_ne(8, X____34);
constraint int_ne(8, X____38);
constraint int_ne(8, X____39);
constraint int_ne(8, X____4);
constraint int_ne(8, X____40);
constraint int_ne(8, X____42);
constraint int_ne(8, X____43);
constraint int_ne(8, X____44);
constraint int_ne(8, X____48);
constraint int_ne(8, X____49);
constraint int_ne(8, X____5);
constraint int_ne(8, X____50);
constraint int_ne(9, X____1);
constraint int_ne(9, X____14);
constraint int_ne(9, X____15);
constraint int_ne(9, X____16);
constraint int_ne(9, X____17);
constraint int_ne(9, X____19);
constraint int_ne(9, X____20);
constraint int_ne(9, X____21);
constraint int_ne(9, X____22);
constraint int_ne(9, X____27);
constraint int_ne(9, X____28);
constraint int_ne(9, X____29);
constraint int_ne(9, X____32);
constraint int_ne(9, X____33);
constraint int_ne(9, X____34);
constraint int_ne(9, X____5);
constraint int_ne(9, X____6);
constraint int_ne(9, X____7);
constraint int_ne(9, X____8);
constraint int_ne(9, X____9);
constraint int_ne(X____1, 1);
constraint int_ne(X____1, 2);
constraint int_ne(X____1, X____10);
constraint int_ne(X____1, X____11);
constraint int_ne(X____10, 2);
constraint int_ne(X____10, X____1);
constraint int_ne(X____10, X____15);
constraint int_ne(X____10, X____2);
constraint int_ne(X____10, X____3);
constraint int_ne(X____10, X____9);
constraint int_ne(X____11, 1);
constraint int_ne(X____11, X____1);
constraint int_ne(X____11, X____10);
constraint int_ne(X____11, X____15);
constraint int_ne(X____11, X____2);
constraint int_ne(X____11, X____3);
constraint int_ne(X____11, X____9);
constraint int_ne(X____12, 2);
constraint int_ne(X____12, 8);
constraint int_ne(X____12, X____10);
constraint int_ne(X____12, X____11);
constraint int_ne(X____12, X____17);
constraint int_ne(X____12, X____4);
constraint int_ne(X____12, X____5);
constraint int_ne(X____12, X____9);
constraint int_ne(X____13, 2);
constraint int_ne(X____13, 6);
constraint int_ne(X____13, X____10);
constraint int_ne(X____13, X____11);
constraint int_ne(X____13, X____12);
constraint int_ne(X____13, X____16);
constraint int_ne(X____13, X____17);
constraint int_ne(X____13, X____4);
constraint int_ne(X____13, X____5);
constraint int_ne(X____13, X____9);
constraint int_ne(X____14, 4);
constraint int_ne(X____14, 6);
constraint int_ne(X____14, 7);
constraint int_ne(X____14, 9);
constraint int_ne(X____14, X____10);
constraint int_ne(X____14, X____11);
constraint int_ne(X____14, X____12);
constraint int_ne(X____14, X____13);
constraint int_ne(X____14, X____6);
constraint int_ne(X____14, X____7);
constraint int_ne(X____14, X____8);
constraint int_ne(X____14, X____9);
constraint int_ne(X____15, X____1);
constraint int_ne(X____15, X____10);
constraint int_ne(X____15, X____11);
constraint int_ne(X____15, X____2);
constraint int_ne(X____15, X____3);
constraint int_ne(X____15, X____9);
constraint int_ne(X____16, 1);
constraint int_ne(X____16, 2);
constraint int_ne(X____16, 6);
constraint int_ne(X____16, X____12);
constraint int_ne(X____16, X____13);
constraint int_ne(X____16, X____15);
constraint int_ne(X____16, X____4);
constraint int_ne(X____16, X____5);
constraint int_ne(X____17, 1);
constraint int_ne(X____17, 2);
constraint int_ne(X____17, 6);
constraint int_ne(X____17, X____12);
constraint int_ne(X____17, X____13);
constraint int_ne(X____17, X____15);
constraint int_ne(X____17, X____16);
constraint int_ne(X____17, X____4);
constraint int_ne(X____17, X____5);
constraint int_ne(X____18, 1);
constraint int_ne(X____18, 2);
constraint int_ne(X____18, 4);
constraint int_ne(X____18, 8);
constraint int_ne(X____18, 9);
constraint int_ne(X____18, X____14);
constraint int_ne(X____18, X____15);
constraint int_ne(X____18, X____16);
constraint int_ne(X____18, X____17);
constraint int_ne(X____18, X____6);
constraint int_ne(X____18, X____7);
constraint int_ne(X____18, X____8);
constraint int_ne(X____19, 7);
constraint int_ne(X____19, X____1);
constraint int_ne(X____19, X____15);
constraint int_ne(X____19, X____25);
constraint int_ne(X____19, X____26);
constraint int_ne(X____19, X____33);
constraint int_ne(X____19, X____9);
constraint int_ne(X____2, 2);
constraint int_ne(X____2, X____1);
constraint int_ne(X____2, X____11);
constraint int_ne(X____2, X____15);
constraint int_ne(X____2, X____9);
constraint int_ne(X____20, 1);
constraint int_ne(X____20, 9);
constraint int_ne(X____20, X____10);
constraint int_ne(X____20, X____19);
constraint int_ne(X____20, X____2);
constraint int_ne(X____20, X____26);
constraint int_ne(X____20, X____32);
constraint int_ne(X____20, X____33);
constraint int_ne(X____21, 2);
constraint int_ne(X____21, 7);
constraint int_ne(X____21, 9);
constraint int_ne(X____21, X____11);
constraint int_ne(X____21, X____19);
constraint int_ne(X____21, X____20);
constraint int_ne(X____21, X____25);
constraint int_ne(X____21, X____3);
constraint int_ne(X____21, X____32);
constraint int_ne(X____22, 1);
constraint int_ne(X____22, 2);
constraint int_ne(X____22, 4);
constraint int_ne(X____22, 8);
constraint int_ne(X____22, 9);
constraint int_ne(X____22, X____13);
constraint int_ne(X____22, X____19);
constraint int_ne(X____22, X____20);
constraint int_ne(X____22, X____21);
constraint int_ne(X____22, X____27);
constraint int_ne(X____22, X____28);
constraint int_ne(X____22, X____34);
constraint int_ne(X____23, 1);
constraint int_ne(X____23, 4);
constraint int_ne(X____23, 6);
constraint int_ne(X____23, 9);
constraint int_ne(X____23, X____19);
constraint int_ne(X____23, X____20);
constraint int_ne(X____23, X____21);
constraint int_ne(X____23, X____22);
constraint int_ne(X____23, X____31);
constraint int_ne(X____23, X____36);
constraint int_ne(X____23, X____37);
constraint int_ne(X____23, X____6);
constraint int_ne(X____24, 1);
constraint int_ne(X____24, 2);
constraint int_ne(X____24, 4);
constraint int_ne(X____24, 5);
constraint int_ne(X____24, 7);
constraint int_ne(X____24, X____19);
constraint int_ne(X____24, X____20);
constraint int_ne(X____24, X____21);
constraint int_ne(X____24, X____22);
constraint int_ne(X____24, X____23);
constraint int_ne(X____24, X____30);
constraint int_ne(X____24, X____31);
constraint int_ne(X____24, X____35);
constraint int_ne(X____24, X____36);
constraint int_ne(X____24, X____8);
constraint int_ne(X____25, 1);
constraint int_ne(X____25, 9);
constraint int_ne(X____25, X____10);
constraint int_ne(X____25, X____19);
constraint int_ne(X____25, X____2);
constraint int_ne(X____25, X____20);
constraint int_ne(X____25, X____21);
constraint int_ne(X____25, X____32);
constraint int_ne(X____25, X____33);
constraint int_ne(X____26, 2);
constraint int_ne(X____26, 7);
constraint int_ne(X____26, 9);
constraint int_ne(X____26, X____11);
constraint int_ne(X____26, X____19);
constraint int_ne(X____26, X____20);
constraint int_ne(X____26, X____21);
constraint int_ne(X____26, X____25);
constraint int_ne(X____26, X____3);
constraint int_ne(X____26, X____32);
constraint int_ne(X____27, 1);
constraint int_ne(X____27, 4);
constraint int_ne(X____27, 5);
constraint int_ne(X____27, 9);
constraint int_ne(X____27, X____12);
constraint int_ne(X____27, X____16);
constraint int_ne(X____27, X____22);
constraint int_ne(X____27, X____25);
constraint int_ne(X____27, X____26);
constraint int_ne(X____27, X____4);
constraint int_ne(X____28, 1);
constraint int_ne(X____28, 4);
constraint int_ne(X____28, 5);
constraint int_ne(X____28, 6);
constraint int_ne(X____28, 9);
constraint int_ne(X____28, X____17);
constraint int_ne(X____28, X____22);
constraint int_ne(X____28, X____25);
constraint int_ne(X____28, X____26);
constraint int_ne(X____28, X____27);
constraint int_ne(X____28, X____34);
constraint int_ne(X____28, X____5);
constraint int_ne(X____29, 1);
constraint int_ne(X____29, 2);
constraint int_ne(X____29, 4);
constraint int_ne(X____29, 8);
constraint int_ne(X____29, 9);
constraint int_ne(X____29, X____13);
constraint int_ne(X____29, X____22);
constraint int_ne(X____29, X____25);
constraint int_ne(X____29, X____26);
constraint int_ne(X____29, X____27);
constraint int_ne(X____29, X____28);
constraint int_ne(X____29, X____34);
constraint int_ne(X____3, 1);
constraint int_ne(X____3, X____1);
constraint int_ne(X____3, X____10);
constraint int_ne(X____3, X____15);
constraint int_ne(X____3, X____2);
constraint int_ne(X____3, X____9);
constraint int_ne(X____30, 4);
constraint int_ne(X____30, 5);
constraint int_ne(X____30, 9);
constraint int_ne(X____30, X____23);
constraint int_ne(X____30, X____24);
constraint int_ne(X____30, X____25);
constraint int_ne(X____30, X____26);
constraint int_ne(X____30, X____27);
constraint int_ne(X____30, X____28);
constraint int_ne(X____30, X____29);
constraint int_ne(X____30, X____36);
constraint int_ne(X____30, X____37);
constraint int_ne(X____30, X____6);
constraint int_ne(X____31, 5);
constraint int_ne(X____31, 9);
constraint int_ne(X____31, X____14);
constraint int_ne(X____31, X____18);
constraint int_ne(X____31, X____23);
constraint int_ne(X____31, X____24);
constraint int_ne(X____31, X____25);
constraint int_ne(X____31, X____26);
constraint int_ne(X____31, X____27);
constraint int_ne(X____31, X____28);
constraint int_ne(X____31, X____29);
constraint int_ne(X____31, X____30);
constraint int_ne(X____31, X____35);
constraint int_ne(X____31, X____37);
constraint int_ne(X____31, X____7);
constraint int_ne(X____32, 9);
constraint int_ne(X____32, X____1);
constraint int_ne(X____32, X____15);
constraint int_ne(X____32, X____19);
constraint int_ne(X____32, X____20);
constraint int_ne(X____32, X____21);
constraint int_ne(X____32, X____25);
constraint int_ne(X____32, X____26);
constraint int_ne(X____32, X____9);
constraint int_ne(X____33, 2);
constraint int_ne(X____33, 7);
constraint int_ne(X____33, 9);
constraint int_ne(X____33, X____11);
constraint int_ne(X____33, X____19);
constraint int_ne(X____33, X____20);
constraint int_ne(X____33, X____21);
constraint int_ne(X____33, X____25);
constraint int_ne(X____33, X____26);
constraint int_ne(X____33, X____3);
constraint int_ne(X____33, X____32);
constraint int_ne(X____34, 1);
constraint int_ne(X____34, 4);
constraint int_ne(X____34, 7);
constraint int_ne(X____34, X____12);
constraint int_ne(X____34, X____16);
constraint int_ne(X____34, X____22);
constraint int_ne(X____34, X____27);
constraint int_ne(X____34, X____28);
constraint int_ne(X____34, X____29);
constraint int_ne(X____34, X____32);
constraint int_ne(X____34, X____33);
constraint int_ne(X____34, X____4);
constraint int_ne(X____35, 4);
constraint int_ne(X____35, 5);
constraint int_ne(X____35, 6);
constraint int_ne(X____35, 7);
constraint int_ne(X____35, 9);
constraint int_ne(X____35, X____23);
constraint int_ne(X____35, X____24);
constraint int_ne(X____35, X____30);
constraint int_ne(X____35, X____31);
constraint int_ne(X____35, X____32);
constraint int_ne(X____35, X____33);
constraint int_ne(X____35, X____34);
constraint int_ne(X____35, X____6);
constraint int_ne(X____36, 5);
constraint int_ne(X____36, 6);
constraint int_ne(X____36, 7);
constraint int_ne(X____36, 9);
constraint int_ne(X____36, X____14);
constraint int_ne(X____36, X____18);
constraint int_ne(X____36, X____23);
constraint int_ne(X____36, X____24);
constraint int_ne(X____36, X____30);
constraint int_ne(X____36, X____31);
constraint int_ne(X____36, X____32);
constraint int_ne(X____36, X____33);
constraint int_ne(X____36, X____34);
constraint int_ne(X____36, X____35);
constraint int_ne(X____36, X____7);
constraint int_ne(X____37, 2);
constraint int_ne(X____37, 5);
constraint int_ne(X____37, 6);
constraint int_ne(X____37, 7);
constraint int_ne(X____37, 9);
constraint int_ne(X____37, X____23);
constraint int_ne(X____37, X____24);
constraint int_ne(X____37, X____30);
constraint int_ne(X____37, X____31);
constraint int_ne(X____37, X____32);
constraint int_ne(X____37, X____33);
constraint int_ne(X____37, X____34);
constraint int_ne(X____37, X____35);
constraint int_ne(X____37, X____36);
constraint int_ne(X____37, X____8);
constraint int_ne(X____38, 1);
constraint int_ne(X____38, 3);
constraint int_ne(X____38, 4);
constraint int_ne(X____38, 6);
constraint int_ne(X____38, 7);
constraint int_ne(X____38, X____10);
constraint int_ne(X____38, X____2);
constraint int_ne(X____38, X____20);
constraint int_ne(X____38, X____25);
constraint int_ne(X____38, X____48);
constraint int_ne(X____38, X____50);
constraint int_ne(X____39, 3);
constraint int_ne(X____39, 4);
constraint int_ne(X____39, 5);
constraint int_ne(X____39, 6);
constraint int_ne(X____39, 8);
constraint int_ne(X____39, 9);
constraint int_ne(X____39, X____17);
constraint int_ne(X____39, X____28);
constraint int_ne(X____39, X____38);
constraint int_ne(X____39, X____43);
constraint int_ne(X____39, X____44);
constraint int_ne(X____39, X____5);
constraint int_ne(X____39, X____52);
constraint int_ne(X____4, 6);
constraint int_ne(X____4, 8);
constraint int_ne(X____4, X____1);
constraint int_ne(X____4, X____13);
constraint int_ne(X____4, X____17);
constraint int_ne(X____4, X____2);
constraint int_ne(X____4, X____3);
constraint int_ne(X____40, 2);
constraint int_ne(X____40, 3);
constraint int_ne(X____40, 5);
constraint int_ne(X____40, 8);
constraint int_ne(X____40, X____13);
constraint int_ne(X____40, X____22);
constraint int_ne(X____40, X____29);
constraint int_ne(X____40, X____38);
constraint int_ne(X____40, X____39);
constraint int_ne(X____40, X____43);
constraint int_ne(X____40, X____51);
constraint int_ne(X____41, 2);
constraint int_ne(X____41, 3);
constraint int_ne(X____41, 5);
constraint int_ne(X____41, 6);
constraint int_ne(X____41, 7);
constraint int_ne(X____41, 8);
constraint int_ne(X____41, X____24);
constraint int_ne(X____41, X____37);
constraint int_ne(X____41, X____38);
constraint int_ne(X____41, X____39);
constraint int_ne(X____41, X____40);
constraint int_ne(X____41, X____45);
constraint int_ne(X____41, X____46);
constraint int_ne(X____41, X____53);
constraint int_ne(X____41, X____54);
constraint int_ne(X____41, X____8);
constraint int_ne(X____42, 1);
constraint int_ne(X____42, 3);
constraint int_ne(X____42, 6);
constraint int_ne(X____42, 7);
constraint int_ne(X____42, 8);
constraint int_ne(X____42, X____10);
constraint int_ne(X____42, X____2);
constraint int_ne(X____42, X____20);
constraint int_ne(X____42, X____25);
constraint int_ne(X____42, X____38);
constraint int_ne(X____42, X____48);
constraint int_ne(X____42, X____50);
constraint int_ne(X____43, 1);
constraint int_ne(X____43, 4);
constraint int_ne(X____43, 5);
constraint int_ne(X____43, 6);
constraint int_ne(X____43, X____12);
constraint int_ne(X____43, X____16);
constraint int_ne(X____43, X____27);
constraint int_ne(X____43, X____34);
constraint int_ne(X____43, X____39);
constraint int_ne(X____43, X____4);
constraint int_ne(X____43, X____40);
constraint int_ne(X____43, X____42);
constraint int_ne(X____43, X____51);
constraint int_ne(X____43, X____52);
constraint int_ne(X____44, 2);
constraint int_ne(X____44, 3);
constraint int_ne(X____44, 4);
constraint int_ne(X____44, 5);
constraint int_ne(X____44, 6);
constraint int_ne(X____44, 8);
constraint int_ne(X____44, X____13);
constraint int_ne(X____44, X____22);
constraint int_ne(X____44, X____29);
constraint int_ne(X____44, X____39);
constraint int_ne(X____44, X____40);
constraint int_ne(X____44, X____42);
constraint int_ne(X____44, X____43);
constraint int_ne(X____44, X____51);
constraint int_ne(X____45, 2);
constraint int_ne(X____45, 3);
constraint int_ne(X____45, 4);
constraint int_ne(X____45, 6);
constraint int_ne(X____45, 7);
constraint int_ne(X____45, 9);
constraint int_ne(X____45, X____23);
constraint int_ne(X____45, X____30);
constraint int_ne(X____45, X____35);
constraint int_ne(X____45, X____41);
constraint int_ne(X____45, X____42);
constraint int_ne(X____45, X____43);
constraint int_ne(X____45, X____44);
constraint int_ne(X____45, X____54);
constraint int_ne(X____45, X____55);
constraint int_ne(X____45, X____6);
constraint int_ne(X____46, 2);
constraint int_ne(X____46, 3);
constraint int_ne(X____46, 4);
constraint int_ne(X____46, 5);
constraint int_ne(X____46, 6);
constraint int_ne(X____46, 7);
constraint int_ne(X____46, X____14);
constraint int_ne(X____46, X____18);
constraint int_ne(X____46, X____31);
constraint int_ne(X____46, X____36);
constraint int_ne(X____46, X____41);
constraint int_ne(X____46, X____42);
constraint int_ne(X____46, X____43);
constraint int_ne(X____46, X____44);
constraint int_ne(X____46, X____45);
constraint int_ne(X____46, X____53);
constraint int_ne(X____46, X____55);
constraint int_ne(X____46, X____7);
constraint int_ne(X____47, 2);
constraint int_ne(X____47, 3);
constraint int_ne(X____47, 4);
constraint int_ne(X____47, 6);
constraint int_ne(X____47, 7);
constraint int_ne(X____47, X____24);
constraint int_ne(X____47, X____37);
constraint int_ne(X____47, X____41);
constraint int_ne(X____47, X____42);
constraint int_ne(X____47, X____43);
constraint int_ne(X____47, X____44);
constraint int_ne(X____47, X____45);
constraint int_ne(X____47, X____46);
constraint int_ne(X____47, X____53);
constraint int_ne(X____47, X____54);
constraint int_ne(X____47, X____8);
constraint int_ne(X____48, 3);
constraint int_ne(X____48, 4);
constraint int_ne(X____48, 6);
constraint int_ne(X____48, 8);
constraint int_ne(X____48, 9);
constraint int_ne(X____48, X____1);
constraint int_ne(X____48, X____15);
constraint int_ne(X____48, X____19);
constraint int_ne(X____48, X____32);
constraint int_ne(X____48, X____38);
constraint int_ne(X____48, X____42);
constraint int_ne(X____48, X____9);
constraint int_ne(X____49, 1);
constraint int_ne(X____49, 3);
constraint int_ne(X____49, 4);
constraint int_ne(X____49, 6);
constraint int_ne(X____49, 7);
constraint int_ne(X____49, 8);
constraint int_ne(X____49, X____10);
constraint int_ne(X____49, X____2);
constraint int_ne(X____49, X____20);
constraint int_ne(X____49, X____25);
constraint int_ne(X____49, X____38);
constraint int_ne(X____49, X____42);
constraint int_ne(X____49, X____48);
constraint int_ne(X____5, 8);
constraint int_ne(X____5, X____1);
constraint int_ne(X____5, X____12);
constraint int_ne(X____5, X____13);
constraint int_ne(X____5, X____16);
constraint int_ne(X____5, X____2);
constraint int_ne(X____5, X____3);
constraint int_ne(X____5, X____4);
constraint int_ne(X____50, 2);
constraint int_ne(X____50, 3);
constraint int_ne(X____50, 4);
constraint int_ne(X____50, 6);
constraint int_ne(X____50, 8);
constraint int_ne(X____50, X____11);
constraint int_ne(X____50, X____21);
constraint int_ne(X____50, X____26);
constraint int_ne(X____50, X____3);
constraint int_ne(X____50, X____33);
constraint int_ne(X____50, X____38);
constraint int_ne(X____50, X____42);
constraint int_ne(X____50, X____48);
constraint int_ne(X____50, X____49);
constraint int_ne(X____51, 3);
constraint int_ne(X____51, 4);
constraint int_ne(X____51, 5);
constraint int_ne(X____51, 6);
constraint int_ne(X____51, 8);
constraint int_ne(X____51, 9);
constraint int_ne(X____51, X____17);
constraint int_ne(X____51, X____28);
constraint int_ne(X____51, X____39);
constraint int_ne(X____51, X____40);
constraint int_ne(X____51, X____43);
constraint int_ne(X____51, X____44);
constraint int_ne(X____51, X____48);
constraint int_ne(X____51, X____49);
constraint int_ne(X____51, X____5);
constraint int_ne(X____51, X____50);
constraint int_ne(X____52, 2);
constraint int_ne(X____52, 3);
constraint int_ne(X____52, 5);
constraint int_ne(X____52, 8);
constraint int_ne(X____52, X____13);
constraint int_ne(X____52, X____22);
constraint int_ne(X____52, X____29);
constraint int_ne(X____52, X____39);
constraint int_ne(X____52, X____40);
constraint int_ne(X____52, X____43);
constraint int_ne(X____52, X____44);
constraint int_ne(X____52, X____48);
constraint int_ne(X____52, X____49);
constraint int_ne(X____52, X____50);
constraint int_ne(X____52, X____51);
constraint int_ne(X____53, 2);
constraint int_ne(X____53, 4);
constraint int_ne(X____53, 7);
constraint int_ne(X____53, 8);
constraint int_ne(X____53, 9);
constraint int_ne(X____53, X____23);
constraint int_ne(X____53, X____30);
constraint int_ne(X____53, X____35);
constraint int_ne(X____53, X____41);
constraint int_ne(X____53, X____45);
constraint int_ne(X____53, X____46);
constraint int_ne(X____53, X____47);
constraint int_ne(X____53, X____48);
constraint int_ne(X____53, X____49);
constraint int_ne(X____53, X____50);
constraint int_ne(X____53, X____51);
constraint int_ne(X____53, X____52);
constraint int_ne(X____53, X____6);
constraint int_ne(X____54, 2);
constraint int_ne(X____54, 5);
constraint int_ne(X____54, 7);
constraint int_ne(X____54, 8);
constraint int_ne(X____54, X____14);
constraint int_ne(X____54, X____18);
constraint int_ne(X____54, X____31);
constraint int_ne(X____54, X____36);
constraint int_ne(X____54, X____41);
constraint int_ne(X____54, X____45);
constraint int_ne(X____54, X____46);
constraint int_ne(X____54, X____47);
constraint int_ne(X____54, X____48);
constraint int_ne(X____54, X____49);
constraint int_ne(X____54, X____50);
constraint int_ne(X____54, X____51);
constraint int_ne(X____54, X____52);
constraint int_ne(X____54, X____53);
constraint int_ne(X____54, X____7);
constraint int_ne(X____55, 2);
constraint int_ne(X____55, 6);
constraint int_ne(X____55, 7);
constraint int_ne(X____55, 8);
constraint int_ne(X____55, X____24);
constraint int_ne(X____55, X____37);
constraint int_ne(X____55, X____41);
constraint int_ne(X____55, X____45);
constraint int_ne(X____55, X____46);
constraint int_ne(X____55, X____47);
constraint int_ne(X____55, X____48);
constraint int_ne(X____55, X____49);
constraint int_ne(X____55, X____50);
constraint int_ne(X____55, X____51);
constraint int_ne(X____55, X____52);
constraint int_ne(X____55, X____53);
constraint int_ne(X____55, X____54);
constraint int_ne(X____55, X____8);
constraint int_ne(X____6, 2);
constraint int_ne(X____6, 7);
constraint int_ne(X____6, X____1);
constraint int_ne(X____6, X____14);
constraint int_ne(X____6, X____18);
constraint int_ne(X____6, X____2);
constraint int_ne(X____6, X____3);
constraint int_ne(X____6, X____4);
constraint int_ne(X____6, X____5);
constraint int_ne(X____7, 2);
constraint int_ne(X____7, 4);
constraint int_ne(X____7, 7);
constraint int_ne(X____7, 9);
constraint int_ne(X____7, X____1);
constraint int_ne(X____7, X____2);
constraint int_ne(X____7, X____3);
constraint int_ne(X____7, X____4);
constraint int_ne(X____7, X____5);
constraint int_ne(X____7, X____6);
constraint int_ne(X____8, 2);
constraint int_ne(X____8, 4);
constraint int_ne(X____8, 9);
constraint int_ne(X____8, X____1);
constraint int_ne(X____8, X____14);
constraint int_ne(X____8, X____18);
constraint int_ne(X____8, X____2);
constraint int_ne(X____8, X____3);
constraint int_ne(X____8, X____4);
constraint int_ne(X____8, X____5);
constraint int_ne(X____8, X____6);
constraint int_ne(X____8, X____7);
constraint int_ne(X____9, 1);
constraint int_ne(X____9, 2);
constraint int_ne(X____9, X____1);
constraint int_ne(X____9, X____2);
constraint int_ne(X____9, X____3);
solve satisfy;
